instances/knapsack/discrete_knapsack_uncertainty/knapsack_50_14.lp
\ Model knapsack_50_14
\ LP format - for model browsing. Use MPS format to capture full model detail.
\ Signature: 0xe2d4f45d0ac270ee
Minimize
  - 10 x[0] - 63 x[1] - 24 x[2] - 4 x[3] - 66 x[4] - 21 x[5] - 10 x[6]
   - 80 x[7] - 27 x[8] - 19 x[9] - 87 x[10] - 59 x[11] - 43 x[12]
   - 62 x[13] - 51 x[14] - 80 x[15] - 10 x[16] - 78 x[17] - 91 x[18]
   - 54 x[19] - 34 x[20] - 3 x[21] - 44 x[22] - 12 x[23] - 73 x[24]
   - 67 x[25] - 96 x[26] - 76 x[27] - 70 x[28] - 41 x[29] - 69 x[30]
   - 80 x[31] - 48 x[32] - 71 x[33] - 52 x[34] - 45 x[35] - 81 x[36]
   - 87 x[37] - 7 x[38] - 40 x[39] - 32 x[40] - 50 x[41] - 82 x[42]
   - 11 x[43] - 11 x[44] - 3 x[45] - 97 x[46] - 73 x[47] - 21 x[48]
   - 62 x[49]
Subject To
 primal_upper: 84 x[0] + 12 x[1] + 78 x[2] + 59 x[3] + 52 x[4] + 10 x[5]
   + 5 x[6] + 12 x[7] + 89 x[8] + 10 x[9] + 28 x[10] + 31 x[11] + 96 x[12]
   + 40 x[13] + 49 x[14] + 41 x[15] + 89 x[16] + 12 x[17] + 5 x[18]
   + 86 x[19] + 21 x[20] + 100 x[21] + 52 x[22] + 67 x[23] + 93 x[24]
   + 80 x[25] + 46 x[26] + 4 x[27] + 58 x[28] + 35 x[29] + 10 x[30]
   + 100 x[31] + 40 x[32] + 13 x[33] + 68 x[34] + 53 x[35] + 36 x[36]
   + 37 x[37] + 40 x[38] + 51 x[39] + 19 x[40] + 70 x[41] + 58 x[42]
   + 26 x[43] + 75 x[44] + 75 x[45] + 18 x[46] + 94 x[47] + 79 x[48]
   + 24 x[49] + 8.4 r[0] + 1.2 r[1] + 7.8 r[2] + 5.9 r[3] + 5.2 r[4] + r[5]
   + 0.5 r[6] + 1.2 r[7] + 8.9 r[8] + r[9] + 2.8 r[10] + 3.1 r[11]
   + 9.6 r[12] + 4 r[13] + 4.9 r[14] + 4.1 r[15] + 8.9 r[16] + 1.2 r[17]
   + 0.5 r[18] + 8.6 r[19] + 2.1 r[20] + 10 r[21] + 5.2 r[22] + 6.7 r[23]
   + 9.3 r[24] + 8 r[25] + 4.6 r[26] + 0.4 r[27] + 5.8 r[28] + 3.5 r[29]
   + r[30] + 10 r[31] + 4 r[32] + 1.3 r[33] + 6.8 r[34] + 5.3 r[35]
   + 3.6 r[36] + 3.7 r[37] + 4 r[38] + 5.1 r[39] + 1.9 r[40] + 7 r[41]
   + 5.8 r[42] + 2.6 r[43] + 7.5 r[44] + 7.5 r[45] + 1.8 r[46] + 9.4 r[47]
   + 7.9 r[48] + 2.4 r[49] <= 231
 primal_lower: 1.470697053611715 x[0] + 4.963390239928435 x[1]
   + 0.469459125535876 x[2] + 2.828180586329824 x[3]
   + 0.3239063890392551 x[4] + 0.4973930198532958 x[5]
   + 2.544072353202814 x[6] + 4.6559467841322 x[7]
   + 0.2493640767849835 x[8] + 3.967225506170618 x[9]
   + 0.4301643474714867 x[10] + 4.588801661899388 x[11]
   + 4.677782357891468 x[12] + 4.756591385830514 x[13]
   + 2.648327998747217 x[14] + 1.278416368981918 x[15]
   + 2.51139634267919 x[16] + 3.522992623503166 x[17]
   + 2.039920038915059 x[18] + 3.804279759276833 x[19]
   + 5.014596084241989 x[20] + 4.181014643023529 x[21]
   + 4.170938074721346 x[22] + 4.616595405981918 x[23]
   + 3.36860189050251 x[24] + 3.776908142848188 x[25]
   + 1.80063311644278 x[26] + 2.008975234213548 x[27]
   + 4.09839045921901 x[28] + 1.595457794010222 x[29]
   + 4.932529487154783 x[30] + 1.125615231462537 x[31]
   + 3.077614552181094 x[32] + 2.455101324145042 x[33]
   + 0.0966308173124311 x[34] + 0.2697691131597255 x[35]
   + 2.680090208274285 x[36] + 0.3528447699572854 x[37]
   + 1.410407071376152 x[38] + 3.483264317470114 x[39]
   + 1.50614986628698 x[40] + 4.321693565540115 x[41]
   + 1.315313076435796 x[42] + 4.88782399864473 x[43]
   + 0.5670423515732289 x[44] + 4.760681642103104 x[45]
   + 2.785310401988814 x[46] + 1.44147169268057 x[47]
   + 2.719885762486124 x[48] + 4.459709876016649 x[49] + 98 u[0] + 83 u[1]
   + 21 u[2] + 66 u[3] + 39 u[4] + 32 u[5] + 24 u[6] + 10 u[7] + 84 u[8]
   + 97 u[9] + 42 u[10] + 18 u[11] + 55 u[12] + 47 u[13] + 27 u[14]
   + 99 u[15] + 80 u[16] + 39 u[17] + 40 u[18] + 45 u[19] + 48 u[20]
   + 90 u[21] + 27 u[22] + 49 u[23] + 83 u[24] + 15 u[25] + 97 u[26]
   + 2 u[27] + 48 u[28] + 22 u[29] + 44 u[30] + 94 u[31] + 66 u[32]
   + 20 u[33] + 79 u[34] + 84 u[35] + 19 u[36] + 51 u[37] + 11 u[38]
   + 97 u[39] + 2 u[40] + 28 u[41] + 65 u[42] + 76 u[43] + 86 u[44]
   + 77 u[45] + 28 u[46] + 88 u[47] + 22 u[48] + 99 u[49] <= 70683
 mccormick1[0]: - u[0] + r[0] <= 0
 mccormick1[1]: - u[1] + r[1] <= 0
 mccormick1[2]: - u[2] + r[2] <= 0
 mccormick1[3]: - u[3] + r[3] <= 0
 mccormick1[4]: - u[4] + r[4] <= 0
 mccormick1[5]: - u[5] + r[5] <= 0
 mccormick1[6]: - u[6] + r[6] <= 0
 mccormick1[7]: - u[7] + r[7] <= 0
 mccormick1[8]: - u[8] + r[8] <= 0
 mccormick1[9]: - u[9] + r[9] <= 0
 mccormick1[10]: - u[10] + r[10] <= 0
 mccormick1[11]: - u[11] + r[11] <= 0
 mccormick1[12]: - u[12] + r[12] <= 0
 mccormick1[13]: - u[13] + r[13] <= 0
 mccormick1[14]: - u[14] + r[14] <= 0
 mccormick1[15]: - u[15] + r[15] <= 0
 mccormick1[16]: - u[16] + r[16] <= 0
 mccormick1[17]: - u[17] + r[17] <= 0
 mccormick1[18]: - u[18] + r[18] <= 0
 mccormick1[19]: - u[19] + r[19] <= 0
 mccormick1[20]: - u[20] + r[20] <= 0
 mccormick1[21]: - u[21] + r[21] <= 0
 mccormick1[22]: - u[22] + r[22] <= 0
 mccormick1[23]: - u[23] + r[23] <= 0
 mccormick1[24]: - u[24] + r[24] <= 0
 mccormick1[25]: - u[25] + r[25] <= 0
 mccormick1[26]: - u[26] + r[26] <= 0
 mccormick1[27]: - u[27] + r[27] <= 0
 mccormick1[28]: - u[28] + r[28] <= 0
 mccormick1[29]: - u[29] + r[29] <= 0
 mccormick1[30]: - u[30] + r[30] <= 0
 mccormick1[31]: - u[31] + r[31] <= 0
 mccormick1[32]: - u[32] + r[32] <= 0
 mccormick1[33]: - u[33] + r[33] <= 0
 mccormick1[34]: - u[34] + r[34] <= 0
 mccormick1[35]: - u[35] + r[35] <= 0
 mccormick1[36]: - u[36] + r[36] <= 0
 mccormick1[37]: - u[37] + r[37] <= 0
 mccormick1[38]: - u[38] + r[38] <= 0
 mccormick1[39]: - u[39] + r[39] <= 0
 mccormick1[40]: - u[40] + r[40] <= 0
 mccormick1[41]: - u[41] + r[41] <= 0
 mccormick1[42]: - u[42] + r[42] <= 0
 mccormick1[43]: - u[43] + r[43] <= 0
 mccormick1[44]: - u[44] + r[44] <= 0
 mccormick1[45]: - u[45] + r[45] <= 0
 mccormick1[46]: - u[46] + r[46] <= 0
 mccormick1[47]: - u[47] + r[47] <= 0
 mccormick1[48]: - u[48] + r[48] <= 0
 mccormick1[49]: - u[49] + r[49] <= 0
 mccormick2[0]: - x[0] + r[0] <= 0
 mccormick2[1]: - x[1] + r[1] <= 0
 mccormick2[2]: - x[2] + r[2] <= 0
 mccormick2[3]: - x[3] + r[3] <= 0
 mccormick2[4]: - x[4] + r[4] <= 0
 mccormick2[5]: - x[5] + r[5] <= 0
 mccormick2[6]: - x[6] + r[6] <= 0
 mccormick2[7]: - x[7] + r[7] <= 0
 mccormick2[8]: - x[8] + r[8] <= 0
 mccormick2[9]: - x[9] + r[9] <= 0
 mccormick2[10]: - x[10] + r[10] <= 0
 mccormick2[11]: - x[11] + r[11] <= 0
 mccormick2[12]: - x[12] + r[12] <= 0
 mccormick2[13]: - x[13] + r[13] <= 0
 mccormick2[14]: - x[14] + r[14] <= 0
 mccormick2[15]: - x[15] + r[15] <= 0
 mccormick2[16]: - x[16] + r[16] <= 0
 mccormick2[17]: - x[17] + r[17] <= 0
 mccormick2[18]: - x[18] + r[18] <= 0
 mccormick2[19]: - x[19] + r[19] <= 0
 mccormick2[20]: - x[20] + r[20] <= 0
 mccormick2[21]: - x[21] + r[21] <= 0
 mccormick2[22]: - x[22] + r[22] <= 0
 mccormick2[23]: - x[23] + r[23] <= 0
 mccormick2[24]: - x[24] + r[24] <= 0
 mccormick2[25]: - x[25] + r[25] <= 0
 mccormick2[26]: - x[26] + r[26] <= 0
 mccormick2[27]: - x[27] + r[27] <= 0
 mccormick2[28]: - x[28] + r[28] <= 0
 mccormick2[29]: - x[29] + r[29] <= 0
 mccormick2[30]: - x[30] + r[30] <= 0
 mccormick2[31]: - x[31] + r[31] <= 0
 mccormick2[32]: - x[32] + r[32] <= 0
 mccormick2[33]: - x[33] + r[33] <= 0
 mccormick2[34]: - x[34] + r[34] <= 0
 mccormick2[35]: - x[35] + r[35] <= 0
 mccormick2[36]: - x[36] + r[36] <= 0
 mccormick2[37]: - x[37] + r[37] <= 0
 mccormick2[38]: - x[38] + r[38] <= 0
 mccormick2[39]: - x[39] + r[39] <= 0
 mccormick2[40]: - x[40] + r[40] <= 0
 mccormick2[41]: - x[41] + r[41] <= 0
 mccormick2[42]: - x[42] + r[42] <= 0
 mccormick2[43]: - x[43] + r[43] <= 0
 mccormick2[44]: - x[44] + r[44] <= 0
 mccormick2[45]: - x[45] + r[45] <= 0
 mccormick2[46]: - x[46] + r[46] <= 0
 mccormick2[47]: - x[47] + r[47] <= 0
 mccormick2[48]: - x[48] + r[48] <= 0
 mccormick2[49]: - x[49] + r[49] <= 0
 mccormick3[0]: x[0] + u[0] - r[0] <= 1
 mccormick3[1]: x[1] + u[1] - r[1] <= 1
 mccormick3[2]: x[2] + u[2] - r[2] <= 1
 mccormick3[3]: x[3] + u[3] - r[3] <= 1
 mccormick3[4]: x[4] + u[4] - r[4] <= 1
 mccormick3[5]: x[5] + u[5] - r[5] <= 1
 mccormick3[6]: x[6] + u[6] - r[6] <= 1
 mccormick3[7]: x[7] + u[7] - r[7] <= 1
 mccormick3[8]: x[8] + u[8] - r[8] <= 1
 mccormick3[9]: x[9] + u[9] - r[9] <= 1
 mccormick3[10]: x[10] + u[10] - r[10] <= 1
 mccormick3[11]: x[11] + u[11] - r[11] <= 1
 mccormick3[12]: x[12] + u[12] - r[12] <= 1
 mccormick3[13]: x[13] + u[13] - r[13] <= 1
 mccormick3[14]: x[14] + u[14] - r[14] <= 1
 mccormick3[15]: x[15] + u[15] - r[15] <= 1
 mccormick3[16]: x[16] + u[16] - r[16] <= 1
 mccormick3[17]: x[17] + u[17] - r[17] <= 1
 mccormick3[18]: x[18] + u[18] - r[18] <= 1
 mccormick3[19]: x[19] + u[19] - r[19] <= 1
 mccormick3[20]: x[20] + u[20] - r[20] <= 1
 mccormick3[21]: x[21] + u[21] - r[21] <= 1
 mccormick3[22]: x[22] + u[22] - r[22] <= 1
 mccormick3[23]: x[23] + u[23] - r[23] <= 1
 mccormick3[24]: x[24] + u[24] - r[24] <= 1
 mccormick3[25]: x[25] + u[25] - r[25] <= 1
 mccormick3[26]: x[26] + u[26] - r[26] <= 1
 mccormick3[27]: x[27] + u[27] - r[27] <= 1
 mccormick3[28]: x[28] + u[28] - r[28] <= 1
 mccormick3[29]: x[29] + u[29] - r[29] <= 1
 mccormick3[30]: x[30] + u[30] - r[30] <= 1
 mccormick3[31]: x[31] + u[31] - r[31] <= 1
 mccormick3[32]: x[32] + u[32] - r[32] <= 1
 mccormick3[33]: x[33] + u[33] - r[33] <= 1
 mccormick3[34]: x[34] + u[34] - r[34] <= 1
 mccormick3[35]: x[35] + u[35] - r[35] <= 1
 mccormick3[36]: x[36] + u[36] - r[36] <= 1
 mccormick3[37]: x[37] + u[37] - r[37] <= 1
 mccormick3[38]: x[38] + u[38] - r[38] <= 1
 mccormick3[39]: x[39] + u[39] - r[39] <= 1
 mccormick3[40]: x[40] + u[40] - r[40] <= 1
 mccormick3[41]: x[41] + u[41] - r[41] <= 1
 mccormick3[42]: x[42] + u[42] - r[42] <= 1
 mccormick3[43]: x[43] + u[43] - r[43] <= 1
 mccormick3[44]: x[44] + u[44] - r[44] <= 1
 mccormick3[45]: x[45] + u[45] - r[45] <= 1
 mccormick3[46]: x[46] + u[46] - r[46] <= 1
 mccormick3[47]: x[47] + u[47] - r[47] <= 1
 mccormick3[48]: x[48] + u[48] - r[48] <= 1
 mccormick3[49]: x[49] + u[49] - r[49] <= 1
Bounds
Binaries
 x[0] x[1] x[2] x[3] x[4] x[5] x[6] x[7] x[8] x[9] x[10] x[11] x[12] x[13]
 x[14] x[15] x[16] x[17] x[18] x[19] x[20] x[21] x[22] x[23] x[24] x[25]
 x[26] x[27] x[28] x[29] x[30] x[31] x[32] x[33] x[34] x[35] x[36] x[37]
 x[38] x[39] x[40] x[41] x[42] x[43] x[44] x[45] x[46] x[47] x[48] x[49]
 u[0] u[1] u[2] u[3] u[4] u[5] u[6] u[7] u[8] u[9] u[10] u[11] u[12] u[13]
 u[14] u[15] u[16] u[17] u[18] u[19] u[20] u[21] u[22] u[23] u[24] u[25]
 u[26] u[27] u[28] u[29] u[30] u[31] u[32] u[33] u[34] u[35] u[36] u[37]
 u[38] u[39] u[40] u[41] u[42] u[43] u[44] u[45] u[46] u[47] u[48] u[49]
 r[0] r[1] r[2] r[3] r[4] r[5] r[6] r[7] r[8] r[9] r[10] r[11] r[12] r[13]
 r[14] r[15] r[16] r[17] r[18] r[19] r[20] r[21] r[22] r[23] r[24] r[25]
 r[26] r[27] r[28] r[29] r[30] r[31] r[32] r[33] r[34] r[35] r[36] r[37]
 r[38] r[39] r[40] r[41] r[42] r[43] r[44] r[45] r[46] r[47] r[48] r[49]
End
