instances/knapsack/discrete_knapsack_uncertainty/knapsack_50_14.kp
36666
50
231

84 8.4 10
12 1.2 63
78 7.8 24
59 5.9 4
52 5.2 66
10 1.0 21
5 0.5 10
12 1.2 80
89 8.9 27
10 1.0 19
28 2.8 87
31 3.1 59
96 9.6 43
40 4.0 62
49 4.9 51
41 4.1 80
89 8.9 10
12 1.2 78
5 0.5 91
86 8.6 54
21 2.1 34
100 10.0 3
52 5.2 44
67 6.7 12
93 9.3 73
80 8.0 67
46 4.6 96
4 0.4 76
58 5.8 70
35 3.5 41
10 1.0 69
100 10.0 80
40 4.0 48
13 1.3 71
68 6.8 52
53 5.3 45
36 3.6 81
37 3.7 87
40 4.0 7
51 5.1 40
19 1.9 32
70 7.0 50
58 5.8 82
26 2.6 11
75 7.5 11
75 7.5 3
18 1.8 97
94 9.4 73
79 7.9 21
24 2.4 62

70683
253

[1.470697053611715 4.963390239928435 0.46945912553587604 2.828180586329824 0.3239063890392551 0.49739301985329576 2.5440723532028136 4.6559467841322 0.24936407678498354 3.967225506170618 0.43016434747148674 4.588801661899388 4.677782357891468 4.756591385830514 2.6483279987472175 1.2784163689819177 2.5113963426791903 3.522992623503166 2.039920038915059 3.804279759276833 5.0145960842419885 4.181014643023529 4.170938074721346 4.616595405981918 3.3686018905025104 3.776908142848188 1.8006331164427796 2.0089752342135476 4.09839045921901 1.5954577940102217 4.932529487154783 1.1256152314625365 3.0776145521810943 2.4551013241450423 0.09663081731243107 0.26976911315972546 2.6800902082742852 0.35284476995728536 1.4104070713761523 3.483264317470114 1.5061498662869803 4.321693565540115 1.3153130764357956 4.88782399864473 0.5670423515732289 4.760681642103104 2.7853104019888137 1.4414716926805702 2.7198857624861237 4.459709876016649]

[98 83 21 66 39 32 24 10 84 97 42 18 55 47 27 99 80 39 40 45 48 90 27 49 83 15 97 2 48 22 44 94 66 20 79 84 19 51 11 97 2 28 65 76 86 77 28 88 22 99]
